data/solutions/recovery/degenerate/intermediate/binding/degenerate_intermediate_instance31/97.sol
Elapsed time: 0.04
Upper bound: inf
Planning weighted value: 1.95258814673e+11
C[0]=16314934.0
C[1]=16181604.0002
C[2]=16012729.9998
C[3]=14646706.0
C[4]=14129499.0
C[5]=13778750.0
C[6]=13748924.0
C[7]=12217228.0
C[8]=11296325.0
C[9]=11295255.0
C[10]=11284375.0
C[11]=11245363.0
C[12]=11104093.0
C[13]=11035414.0
y[0]=13
y[1]=7
y[2]=4
y[3]=12
y[4]=6
y[5]=10
y[6]=0
y[7]=3
y[8]=2
y[9]=2
y[10]=1
y[11]=3
y[12]=5
y[13]=11
y[14]=12
y[15]=1
y[16]=3
y[17]=6
y[18]=11
y[19]=0
y[20]=1
y[21]=2
y[22]=2
y[23]=1
y[24]=12
y[25]=11
y[26]=9
y[27]=1
y[28]=10
y[29]=5
y[30]=9
y[31]=8
y[32]=3
y[33]=0
y[34]=6
y[35]=11
y[36]=9
y[37]=13
y[38]=11
y[39]=10
y[40]=7
y[41]=0
y[42]=10
y[43]=12
y[44]=7
y[45]=6
y[46]=7
y[47]=4
y[48]=12
y[49]=13
y[50]=0
y[51]=9
y[52]=4
y[53]=5
y[54]=12
y[55]=5
y[56]=13
y[57]=1
y[58]=4
y[59]=3
y[60]=8
y[61]=3
y[62]=8
y[63]=8
y[64]=6
y[65]=13
y[66]=5
y[67]=5
y[68]=4
y[69]=9
y[70]=6
y[71]=5
y[72]=9
y[73]=10
y[74]=8
y[75]=1
y[76]=0
y[77]=4
y[78]=2
y[79]=3
