data/solutions/recovery/degenerate/intermediate/binding/degenerate_intermediate_instance31/97.log

Log started (V12.6.3.0) Sun Apr 22 12:34:30 2018

New value for default parallel thread count: 1

Problem '/tmp/tmpj8P8jj.pyomo.lp' read.
Read time = 0.02 sec. (1.11 ticks)

Problem name         : /tmp/tmpj8P8jj.pyomo.lp
Objective sense      : Minimize
Variables            :    1136  [Nneg: 1,  Binary: 1120,  General Integer: 15]
Objective nonzeros   :       1
Linear constraints   :     189  [Less: 94,  Equal: 95]
  Nonzeros           :   80213
  RHS nonzeros       :      81

Variables            : Min LB: 0.000000         Max UB: 1.000000       
Objective nonzeros   : Min   : 1.000000         Max   : 1.000000       
Linear constraints   :
  Nonzeros           : Min   : 1.000000         Max   : 8036379.       
  RHS nonzeros       : Min   : 1.000000         Max   : 1.000000       
Tried aggregator 2 times.
MIP Presolve eliminated 156 rows and 1051 columns.
Aggregator did 14 substitutions.
Reduced MIP has 19 rows, 71 columns, and 154 nonzeros.
Reduced MIP has 70 binaries, 1 generals, 0 SOSs, and 0 indicators.
Presolve time = 0.00 sec. (4.83 ticks)
Found incumbent of value 3.5244868e+07 after 0.01 sec. (6.76 ticks)
Probing time = 0.00 sec. (0.10 ticks)
Cover probing fixed 0 vars, tightened 3 bounds.
Tried aggregator 1 time.
Reduced MIP has 19 rows, 71 columns, and 154 nonzeros.
Reduced MIP has 70 binaries, 1 generals, 0 SOSs, and 0 indicators.
Presolve time = 0.00 sec. (0.11 ticks)
Probing time = 0.00 sec. (0.10 ticks)
Clique table members: 5.
MIP emphasis: balance optimality and feasibility.
MIP search method: dynamic search.
Parallel mode: none, using 1 thread.
Root relaxation solution time = 0.00 sec. (0.06 ticks)

        Nodes                                         Cuts/
   Node  Left     Objective  IInf  Best Integer    Best Bound    ItCnt     Gap

*     0+    0                       3.52449e+07   1.46467e+07            58.44%
      0     0   1.46467e+07    11   3.52449e+07   1.46467e+07       13   58.44%
*     0+    0                       1.75170e+07   1.46467e+07            16.39%
      0     0   1.46467e+07     8   1.75170e+07      Fract: 1       17   16.39%
*     0+    0                       1.71288e+07   1.46467e+07            14.49%
      0     0   1.47600e+07    13   1.71288e+07       Cuts: 9       45   13.83%
*     0+    0                       1.69183e+07   1.47600e+07            12.76%
*     0+    0                       1.63896e+07   1.47600e+07             9.94%

Repeating presolve.
Tried aggregator 2 times.
MIP Presolve eliminated 14 rows and 65 columns.
MIP Presolve modified 7 coefficients.
Aggregator did 1 substitutions.
Reduced MIP has 4 rows, 5 columns, and 11 nonzeros.
Reduced MIP has 4 binaries, 1 generals, 0 SOSs, and 0 indicators.
Presolve time = 0.00 sec. (0.06 ticks)
Probing time = 0.00 sec. (0.00 ticks)
Tried aggregator 1 time.
MIP Presolve modified 2 coefficients.
Reduced MIP has 4 rows, 5 columns, and 10 nonzeros.
Reduced MIP has 4 binaries, 1 generals, 0 SOSs, and 0 indicators.
Presolve time = 0.00 sec. (0.01 ticks)
Represolve time = 0.00 sec. (0.16 ticks)
Probing time = 0.00 sec. (0.00 ticks)
Clique table members: 3.
MIP emphasis: balance optimality and feasibility.
MIP search method: dynamic search.
Parallel mode: none, using 1 thread.
Root relaxation solution time = 0.00 sec. (0.01 ticks)

        Nodes                                         Cuts/
   Node  Left     Objective  IInf  Best Integer    Best Bound    ItCnt     Gap

*     0+    0                       1.63896e+07   1.63149e+07             0.46%
*     0     0      integral     0   1.63149e+07   1.63149e+07       48    0.00%
Elapsed time = 0.01 sec. (8.57 ticks, tree = 0.00 MB, solutions = 5)

Gomory fractional cuts applied:  2
Warning: integer solution contains unscaled infeasibilities.

Root node processing (before b&c):
  Real time             =    0.01 sec. (8.63 ticks)
Sequential b&c:
  Real time             =    0.00 sec. (0.00 ticks)
                          ------------
Total (root+branch&cut) =    0.01 sec. (8.63 ticks)

Solution pool: 5 solutions saved.

Maximum unscaled integer infeasibility = 0.000247784.
MIP - Integer optimal with unscaled infeasibilities:  Objective =  1.6314934000e+07
Solution time =    0.01 sec.  Iterations = 48  Nodes = 0
Deterministic time = 8.63 ticks  (871.94 ticks/sec)


Incumbent solution written to file '/tmp/tmpixw2_B.cplex.sol'.
